************************************************************************
file with basedata            : mm6_.bas
initial value random generator: 1329841971
************************************************************************
projects                      :  1
jobs (incl. supersource/sink ):  12
horizon                       :  70
RESOURCES
  - renewable                 :  2   R
  - nonrenewable              :  2   N
  - doubly constrained        :  0   D
************************************************************************
PROJECT INFORMATION:
pronr.  #jobs rel.date duedate tardcost  MPM-Time
    1     10      0       14        9       14
************************************************************************
PRECEDENCE RELATIONS:
jobnr.    #modes  #successors   successors
   0        1          3           1   2   3
   1        3          2           6   9
   2        3          1          10
   3        3          3           4   6   9
   4        3          2           5   8
   5        3          1           7
   6        3          2           7   8
   7        3          1          10
   8        3          1          11
   9        3          1          11
  10        3          1          11
  11        1          0        
************************************************************************
REQUESTS/DURATIONS:
jobnr. mode duration  R 1  R 2  R 3  R 4  E(W 1)
------------------------------------------------------------------------
  0      1     0       0    0    0    0     0
  1      1     1       0    4    8   10    22
  2      1     1       7    0    8    7    22
  3      1     2       6    0    8    9    46
  4      1     2       0    4   10    8    44
  5      1     1       8    0    8    7    23
  6      1     2       0    6    4    5    30
  7      1     4       0    3    3    8    56
  8      1     1       0    8    5    6    19
  9      1     3       0    4    9    6    57
 10      1     5       5    0    4    5    70
 11      1     0       0    0    0    0     0
************************************************************************
RESOURCEAVAILABILITIES:
  R 1
   129
************************************************************************
RESOURCE LIMITS:
jobnr.  l(R 1)  u(R 1)
------------------------------------------------------------------------
  0        0       0
  1       11      22
  2       12      22
  3       12      23
  4       11      22
  5       12      23
  6        8      15
  7        8      14
  8       10      19
  9       10      19
 10        8      14
 11        0       0
************************************************************************
SCENARIOS:
------------------------------------------------------------------------
RESOURCE k = 1
s = 1: (0, 16, 20, 59, 39, 15, 32, 73, 19, 48, 52, 0)
s = 2: (0, 20, 28, 29, 36, 43, 37, 74, 16, 64, 37, 0)
s = 3: (0, 25, 16, 31, 82, 36, 29, 53, 13, 63, 74, 0)
s = 4: (0, 16, 21, 30, 41, 24, 16, 57, 18, 42, 81, 0)
s = 5: (0, 31, 21, 43, 55, 25, 27, 34, 17, 64, 73, 0)
s = 6: (0, 31, 14, 71, 52, 27, 22, 39, 14, 47, 80, 0)
s = 7: (0, 32, 28, 54, 34, 33, 24, 62, 17, 101, 46, 0)
s = 8: (0, 22, 20, 56, 33, 32, 41, 84, 24, 40, 73, 0)
s = 9: (0, 17, 24, 51, 32, 14, 29, 37, 14, 35, 38, 0)
s = 10: (0, 24, 17, 40, 26, 19, 61, 44, 20, 66, 70, 0)
s = 11: (0, 16, 19, 45, 37, 27, 23, 70, 14, 62, 76, 0)
s = 12: (0, 13, 25, 26, 44, 29, 18, 62, 18, 80, 37, 0)
s = 13: (0, 24, 29, 70, 71, 33, 29, 86, 23, 47, 66, 0)
s = 14: (0, 35, 24, 45, 27, 39, 24, 66, 26, 60, 56, 0)
s = 15: (0, 17, 23, 49, 71, 31, 26, 33, 19, 66, 79, 0)
s = 16: (0, 21, 19, 55, 39, 35, 21, 39, 14, 72, 77, 0)
s = 17: (0, 19, 28, 30, 34, 17, 22, 43, 15, 82, 50, 0)
s = 18: (0, 21, 27, 47, 31, 35, 36, 36, 22, 43, 97, 0)
s = 19: (0, 38, 18, 34, 66, 32, 21, 50, 20, 39, 47, 0)
s = 20: (0, 20, 24, 38, 59, 23, 42, 52, 19, 53, 53, 0)
s = 21: (0, 18, 20, 43, 40, 20, 30, 44, 15, 69, 58, 0)
s = 22: (0, 16, 22, 40, 54, 23, 21, 61, 17, 54, 61, 0)
s = 23: (0, 33, 19, 46, 34, 27, 25, 62, 23, 69, 84, 0)
s = 24: (0, 27, 37, 48, 37, 32, 23, 36, 18, 68, 73, 0)
s = 25: (0, 31, 34, 27, 64, 19, 31, 50, 19, 49, 112, 0)
s = 26: (0, 36, 19, 45, 65, 25, 27, 58, 18, 62, 105, 0)
s = 27: (0, 23, 14, 42, 42, 27, 22, 102, 16, 47, 47, 0)
s = 28: (0, 13, 12, 30, 39, 37, 23, 66, 22, 41, 78, 0)
s = 29: (0, 19, 12, 56, 47, 20, 45, 43, 18, 87, 71, 0)
s = 30: (0, 22, 33, 66, 25, 25, 53, 79, 14, 73, 45, 0)
s = 31: (0, 19, 19, 42, 35, 19, 26, 56, 20, 45, 48, 0)
s = 32: (0, 33, 22, 43, 64, 16, 25, 49, 16, 50, 53, 0)
s = 33: (0, 26, 24, 58, 36, 30, 32, 80, 16, 45, 99, 0)
s = 34: (0, 29, 12, 72, 28, 21, 17, 42, 17, 55, 71, 0)
s = 35: (0, 25, 23, 65, 49, 14, 27, 50, 21, 47, 61, 0)
s = 36: (0, 20, 24, 61, 46, 21, 19, 60, 20, 79, 61, 0)
s = 37: (0, 21, 23, 36, 40, 19, 27, 77, 17, 66, 78, 0)
s = 38: (0, 23, 16, 53, 44, 21, 19, 72, 20, 38, 84, 0)
s = 39: (0, 21, 24, 38, 25, 34, 21, 54, 28, 53, 52, 0)
s = 40: (0, 19, 28, 40, 50, 25, 31, 95, 18, 68, 73, 0)
s = 41: (0, 21, 27, 56, 50, 25, 30, 49, 16, 39, 65, 0)
s = 42: (0, 16, 20, 36, 43, 28, 28, 69, 21, 73, 89, 0)
s = 43: (0, 32, 25, 35, 38, 27, 48, 40, 28, 66, 89, 0)
s = 44: (0, 29, 19, 43, 26, 31, 21, 45, 20, 66, 96, 0)
s = 45: (0, 22, 30, 39, 41, 32, 43, 45, 16, 70, 65, 0)
s = 46: (0, 25, 27, 36, 39, 15, 20, 69, 16, 42, 67, 0)
s = 47: (0, 17, 22, 26, 36, 21, 48, 61, 11, 42, 68, 0)
s = 48: (0, 13, 16, 57, 39, 22, 42, 41, 13, 73, 65, 0)
s = 49: (0, 27, 21, 70, 47, 25, 41, 75, 21, 66, 60, 0)
s = 50: (0, 18, 17, 41, 38, 34, 18, 38, 32, 31, 65, 0)
s = 51: (0, 21, 27, 64, 67, 31, 28, 52, 13, 81, 39, 0)
s = 52: (0, 24, 30, 30, 42, 17, 32, 52, 16, 32, 76, 0)
s = 53: (0, 33, 24, 40, 45, 22, 27, 59, 17, 87, 51, 0)
s = 54: (0, 22, 20, 28, 52, 22, 20, 43, 15, 35, 65, 0)
s = 55: (0, 15, 15, 50, 39, 26, 28, 37, 20, 46, 79, 0)
s = 56: (0, 26, 21, 46, 34, 32, 33, 35, 19, 68, 74, 0)
s = 57: (0, 31, 14, 61, 40, 17, 25, 35, 18, 90, 65, 0)
s = 58: (0, 23, 15, 38, 35, 30, 39, 68, 29, 51, 75, 0)
s = 59: (0, 20, 32, 49, 48, 25, 37, 70, 28, 62, 72, 0)
s = 60: (0, 23, 19, 46, 42, 13, 44, 57, 15, 60, 86, 0)
s = 61: (0, 37, 20, 57, 25, 29, 30, 60, 26, 73, 51, 0)
s = 62: (0, 15, 15, 44, 50, 19, 31, 60, 21, 64, 63, 0)
s = 63: (0, 18, 33, 36, 44, 31, 43, 47, 16, 47, 79, 0)
s = 64: (0, 15, 17, 34, 31, 24, 19, 60, 31, 41, 100, 0)
s = 65: (0, 26, 20, 59, 29, 15, 32, 48, 23, 48, 45, 0)
s = 66: (0, 20, 22, 35, 35, 33, 50, 77, 18, 76, 41, 0)
s = 67: (0, 16, 28, 59, 54, 15, 18, 48, 17, 89, 68, 0)
s = 68: (0, 31, 25, 29, 33, 27, 26, 78, 26, 50, 95, 0)
s = 69: (0, 27, 18, 65, 42, 36, 20, 61, 21, 42, 50, 0)
s = 70: (0, 15, 21, 49, 34, 15, 40, 38, 22, 45, 63, 0)
s = 71: (0, 29, 14, 52, 46, 27, 35, 56, 23, 41, 38, 0)
s = 72: (0, 32, 25, 37, 45, 25, 24, 86, 30, 43, 46, 0)
s = 73: (0, 22, 17, 28, 50, 16, 35, 51, 12, 43, 66, 0)
s = 74: (0, 15, 17, 36, 40, 16, 31, 46, 20, 70, 44, 0)
s = 75: (0, 12, 19, 28, 48, 29, 49, 48, 14, 33, 58, 0)
s = 76: (0, 18, 33, 29, 38, 14, 22, 63, 21, 61, 104, 0)
s = 77: (0, 14, 22, 38, 60, 33, 38, 78, 20, 58, 114, 0)
s = 78: (0, 18, 34, 48, 38, 29, 34, 84, 11, 53, 96, 0)
s = 79: (0, 19, 25, 38, 37, 33, 42, 68, 22, 72, 118, 0)
s = 80: (0, 20, 30, 34, 47, 29, 22, 45, 26, 73, 56, 0)
s = 81: (0, 24, 24, 41, 45, 38, 36, 34, 16, 46, 81, 0)
s = 82: (0, 27, 25, 66, 46, 18, 27, 59, 14, 66, 75, 0)
s = 83: (0, 32, 19, 29, 70, 19, 28, 68, 14, 100, 69, 0)
s = 84: (0, 21, 20, 59, 29, 13, 33, 80, 24, 53, 50, 0)
s = 85: (0, 12, 17, 67, 44, 22, 43, 32, 18, 83, 70, 0)
s = 86: (0, 21, 16, 47, 48, 21, 27, 82, 17, 62, 52, 0)
s = 87: (0, 25, 16, 51, 53, 17, 20, 53, 16, 54, 81, 0)
s = 88: (0, 25, 19, 44, 35, 23, 45, 52, 18, 51, 59, 0)
s = 89: (0, 16, 27, 66, 31, 17, 45, 76, 19, 63, 67, 0)
s = 90: (0, 25, 26, 30, 28, 26, 25, 45, 19, 58, 63, 0)
s = 91: (0, 35, 30, 61, 61, 36, 23, 42, 14, 52, 94, 0)
s = 92: (0, 32, 17, 33, 66, 20, 28, 59, 17, 64, 96, 0)
s = 93: (0, 20, 27, 31, 50, 16, 36, 66, 26, 50, 78, 0)
s = 94: (0, 20, 20, 55, 38, 27, 36, 44, 12, 58, 62, 0)
s = 95: (0, 22, 20, 31, 35, 23, 20, 41, 21, 68, 56, 0)
s = 96: (0, 14, 27, 37, 55, 27, 34, 40, 19, 84, 55, 0)
s = 97: (0, 16, 23, 62, 65, 30, 30, 64, 27, 39, 62, 0)
s = 98: (0, 17, 15, 40, 47, 20, 24, 64, 20, 43, 46, 0)
s = 99: (0, 18, 19, 33, 28, 25, 34, 57, 29, 54, 86, 0)
s = 100: (0, 33, 20, 31, 56, 13, 24, 40, 16, 45, 93, 0)
s = 101: (0, 19, 23, 61, 36, 13, 36, 68, 11, 84, 67, 0)
s = 102: (0, 16, 19, 41, 42, 26, 21, 63, 19, 50, 51, 0)
s = 103: (0, 28, 25, 28, 67, 30, 44, 45, 29, 73, 92, 0)
s = 104: (0, 15, 15, 32, 42, 20, 43, 39, 12, 37, 76, 0)
s = 105: (0, 16, 26, 63, 53, 18, 22, 55, 24, 53, 65, 0)
s = 106: (0, 32, 23, 39, 56, 30, 33, 39, 17, 95, 46, 0)
s = 107: (0, 32, 18, 40, 54, 14, 29, 93, 21, 44, 72, 0)
s = 108: (0, 19, 19, 40, 41, 18, 23, 43, 14, 33, 113, 0)
s = 109: (0, 22, 21, 39, 46, 25, 22, 33, 28, 57, 82, 0)
s = 110: (0, 12, 23, 25, 46, 34, 36, 54, 14, 76, 81, 0)
s = 111: (0, 19, 29, 52, 29, 17, 34, 42, 18, 49, 76, 0)
s = 112: (0, 18, 30, 25, 42, 25, 20, 44, 20, 64, 52, 0)
s = 113: (0, 28, 29, 31, 37, 22, 38, 46, 14, 68, 82, 0)
s = 114: (0, 17, 26, 42, 46, 20, 17, 37, 21, 52, 40, 0)
s = 115: (0, 18, 27, 64, 34, 35, 24, 57, 20, 60, 107, 0)
s = 116: (0, 33, 16, 65, 76, 23, 46, 69, 23, 67, 49, 0)
s = 117: (0, 20, 26, 58, 38, 18, 35, 43, 20, 40, 56, 0)
s = 118: (0, 38, 29, 59, 50, 27, 34, 45, 11, 70, 74, 0)
s = 119: (0, 19, 28, 43, 36, 21, 21, 56, 21, 57, 76, 0)
s = 120: (0, 13, 19, 64, 38, 17, 28, 65, 16, 60, 63, 0)
s = 121: (0, 25, 21, 34, 44, 29, 31, 39, 28, 79, 62, 0)
s = 122: (0, 21, 23, 67, 38, 34, 34, 73, 20, 110, 70, 0)
s = 123: (0, 18, 16, 43, 43, 22, 45, 35, 17, 73, 112, 0)
s = 124: (0, 22, 28, 49, 51, 33, 38, 48, 23, 38, 83, 0)
s = 125: (0, 25, 14, 28, 37, 16, 28, 48, 22, 43, 55, 0)
s = 126: (0, 21, 22, 27, 42, 23, 16, 48, 16, 68, 117, 0)
s = 127: (0, 17, 19, 32, 48, 20, 26, 55, 23, 45, 68, 0)
s = 128: (0, 32, 16, 48, 85, 23, 27, 46, 30, 46, 57, 0)
s = 129: (0, 21, 23, 43, 71, 20, 32, 58, 12, 50, 88, 0)
s = 130: (0, 25, 22, 30, 39, 20, 33, 37, 16, 54, 82, 0)
s = 131: (0, 29, 26, 56, 60, 20, 28, 73, 26, 45, 67, 0)
s = 132: (0, 19, 35, 64, 29, 23, 34, 64, 13, 47, 59, 0)
s = 133: (0, 25, 28, 61, 34, 19, 20, 51, 28, 72, 73, 0)
s = 134: (0, 17, 25, 26, 55, 30, 22, 59, 22, 38, 68, 0)
s = 135: (0, 19, 24, 45, 49, 24, 31, 67, 14, 48, 51, 0)
s = 136: (0, 26, 17, 38, 33, 30, 23, 84, 23, 35, 58, 0)
s = 137: (0, 15, 24, 38, 41, 30, 36, 65, 16, 42, 85, 0)
s = 138: (0, 17, 18, 46, 45, 14, 33, 53, 24, 53, 90, 0)
s = 139: (0, 31, 18, 42, 42, 17, 30, 89, 12, 37, 98, 0)
s = 140: (0, 31, 24, 51, 32, 18, 42, 57, 23, 77, 67, 0)
s = 141: (0, 13, 25, 59, 57, 24, 38, 55, 14, 50, 69, 0)
s = 142: (0, 35, 22, 55, 52, 21, 33, 55, 16, 66, 61, 0)
s = 143: (0, 15, 13, 52, 56, 28, 47, 36, 12, 58, 45, 0)
s = 144: (0, 24, 15, 38, 75, 28, 35, 42, 14, 71, 57, 0)
s = 145: (0, 35, 21, 52, 33, 22, 33, 50, 16, 49, 91, 0)
s = 146: (0, 12, 23, 44, 34, 31, 20, 63, 19, 41, 63, 0)
s = 147: (0, 40, 21, 37, 30, 16, 46, 35, 22, 64, 43, 0)
s = 148: (0, 28, 22, 34, 51, 16, 41, 46, 14, 54, 63, 0)
s = 149: (0, 17, 24, 42, 33, 20, 19, 58, 14, 57, 84, 0)
s = 150: (0, 19, 28, 30, 57, 15, 21, 54, 18, 39, 75, 0)
s = 151: (0, 27, 21, 36, 32, 17, 24, 43, 27, 50, 71, 0)
s = 152: (0, 20, 29, 46, 46, 16, 50, 59, 21, 97, 43, 0)
s = 153: (0, 26, 27, 33, 48, 29, 33, 38, 16, 49, 70, 0)
s = 154: (0, 20, 40, 45, 39, 31, 26, 76, 12, 70, 67, 0)
s = 155: (0, 19, 34, 31, 34, 18, 40, 38, 26, 34, 69, 0)
s = 156: (0, 19, 23, 69, 54, 16, 53, 44, 23, 80, 59, 0)
s = 157: (0, 25, 26, 73, 29, 16, 36, 93, 33, 57, 85, 0)
s = 158: (0, 15, 15, 33, 26, 21, 47, 38, 17, 48, 56, 0)
s = 159: (0, 25, 31, 63, 29, 35, 19, 72, 13, 50, 91, 0)
s = 160: (0, 15, 19, 64, 48, 22, 32, 43, 21, 92, 48, 0)
s = 161: (0, 14, 28, 45, 43, 38, 33, 48, 15, 58, 59, 0)
s = 162: (0, 34, 17, 37, 65, 40, 18, 63, 19, 60, 63, 0)
s = 163: (0, 21, 22, 45, 36, 23, 24, 56, 20, 58, 59, 0)
s = 164: (0, 15, 18, 56, 65, 21, 25, 68, 19, 43, 61, 0)
s = 165: (0, 25, 25, 50, 31, 20, 28, 82, 15, 50, 99, 0)
s = 166: (0, 22, 23, 30, 42, 13, 33, 46, 14, 63, 77, 0)
s = 167: (0, 25, 13, 57, 46, 22, 34, 73, 13, 71, 54, 0)
s = 168: (0, 16, 25, 36, 56, 20, 17, 79, 17, 56, 77, 0)
s = 169: (0, 25, 25, 52, 36, 28, 26, 54, 19, 43, 70, 0)
s = 170: (0, 17, 35, 39, 43, 36, 43, 52, 30, 48, 64, 0)
s = 171: (0, 20, 18, 58, 40, 21, 40, 52, 20, 57, 86, 0)
s = 172: (0, 20, 28, 62, 28, 22, 43, 37, 16, 56, 43, 0)
s = 173: (0, 20, 26, 48, 46, 26, 30, 44, 29, 98, 43, 0)
s = 174: (0, 26, 13, 58, 54, 27, 39, 55, 21, 57, 56, 0)
s = 175: (0, 28, 25, 39, 39, 21, 24, 63, 12, 45, 44, 0)
s = 176: (0, 24, 28, 50, 35, 33, 26, 48, 24, 57, 55, 0)
s = 177: (0, 14, 35, 65, 33, 22, 25, 70, 21, 59, 46, 0)
s = 178: (0, 14, 17, 49, 70, 22, 17, 50, 13, 42, 78, 0)
s = 179: (0, 26, 28, 47, 44, 33, 33, 59, 25, 60, 116, 0)
s = 180: (0, 20, 25, 68, 53, 16, 33, 48, 21, 71, 59, 0)
s = 181: (0, 26, 16, 54, 46, 29, 40, 42, 23, 39, 69, 0)
s = 182: (0, 20, 23, 64, 26, 27, 30, 64, 16, 42, 54, 0)
s = 183: (0, 21, 15, 66, 43, 24, 30, 41, 31, 54, 46, 0)
s = 184: (0, 16, 21, 63, 48, 17, 46, 39, 18, 52, 86, 0)
s = 185: (0, 24, 19, 64, 42, 20, 22, 34, 14, 41, 58, 0)
s = 186: (0, 29, 26, 45, 39, 30, 20, 72, 18, 62, 104, 0)
s = 187: (0, 21, 16, 68, 51, 18, 28, 67, 19, 58, 46, 0)
s = 188: (0, 15, 19, 50, 46, 25, 25, 36, 14, 45, 48, 0)
s = 189: (0, 35, 25, 50, 36, 30, 30, 49, 24, 41, 82, 0)
s = 190: (0, 24, 15, 33, 76, 22, 25, 39, 12, 56, 70, 0)
s = 191: (0, 22, 20, 61, 59, 20, 26, 52, 13, 66, 76, 0)
s = 192: (0, 35, 23, 29, 49, 16, 34, 52, 17, 71, 64, 0)
s = 193: (0, 21, 37, 50, 36, 19, 43, 89, 32, 38, 95, 0)
s = 194: (0, 20, 14, 39, 35, 26, 37, 39, 14, 68, 69, 0)
s = 195: (0, 18, 16, 39, 39, 18, 35, 45, 12, 39, 49, 0)
s = 196: (0, 25, 32, 32, 39, 14, 26, 69, 17, 76, 86, 0)
s = 197: (0, 15, 30, 36, 32, 25, 20, 60, 17, 86, 60, 0)
s = 198: (0, 37, 36, 65, 38, 22, 26, 69, 17, 50, 84, 0)
s = 199: (0, 22, 30, 57, 36, 33, 16, 56, 31, 44, 42, 0)
s = 200: (0, 22, 30, 49, 45, 16, 51, 38, 14, 50, 39, 0)
************************************************************************
ES/LS-VALUES:
jobnr.   ES(i)    LS(i)
------------------------------------------------------------------------
  0        0        0
  1        0       46
  2        0       59
  3        0       43
  4        3       47
  5        6       51
  6        3       48
  7        7       53
  8        7       68
  9        3       64
 10       14       61
 11       22       70
************************************************************************
BIG-M-VALUES:
M1 = 15, M2 = 118
************************************************************************
